c FILE: random-n100-d60-b-n100-d60-1.col

p edge 100 2970
e 1 2
e 1 5
e 1 7
e 1 8
e 1 9
e 1 11
e 1 14
e 1 15
e 1 17
e 1 20
e 1 21
e 1 23
e 1 24
e 1 25
e 1 26
e 1 27
e 1 29
e 1 31
e 1 33
e 1 34
e 1 37
e 1 38
e 1 41
e 1 42
e 1 43
e 1 44
e 1 45
e 1 47
e 1 48
e 1 49
e 1 50
e 1 51
e 1 53
e 1 54
e 1 55
e 1 57
e 1 59
e 1 60
e 1 62
e 1 64
e 1 65
e 1 66
e 1 67
e 1 70
e 1 72
e 1 76
e 1 78
e 1 79
e 1 80
e 1 81
e 1 82
e 1 84
e 1 85
e 1 86
e 1 87
e 1 88
e 1 89
e 1 90
e 1 93
e 1 96
e 1 99
e 2 3
e 2 4
e 2 5
e 2 6
e 2 7
e 2 8
e 2 9
e 2 10
e 2 14
e 2 15
e 2 17
e 2 21
e 2 23
e 2 24
e 2 29
e 2 30
e 2 31
e 2 32
e 2 34
e 2 35
e 2 36
e 2 38
e 2 40
e 2 43
e 2 47
e 2 49
e 2 50
e 2 53
e 2 54
e 2 55
e 2 56
e 2 59
e 2 60
e 2 61
e 2 62
e 2 63
e 2 64
e 2 65
e 2 68
e 2 69
e 2 71
e 2 74
e 2 77
e 2 78
e 2 82
e 2 83
e 2 87
e 2 88
e 2 89
e 2 90
e 2 92
e 2 93
e 2 96
e 2 98
e 2 100
e 3 5
e 3 6
e 3 9
e 3 11
e 3 12
e 3 13
e 3 15
e 3 16
e 3 17
e 3 18
e 3 19
e 3 21
e 3 23
e 3 25
e 3 26
e 3 27
e 3 28
e 3 30
e 3 31
e 3 34
e 3 35
e 3 36
e 3 38
e 3 39
e 3 40
e 3 43
e 3 44
e 3 47
e 3 48
e 3 49
e 3 51
e 3 52
e 3 55
e 3 58
e 3 59
e 3 61
e 3 62
e 3 64
e 3 65
e 3 66
e 3 68
e 3 70
e 3 71
e 3 73
e 3 74
e 3 78
e 3 80
e 3 81
e 3 83
e 3 84
e 3 87
e 3 89
e 3 90
e 3 92
e 3 95
e 3 96
e 3 97
e 3 98
e 3 99
e 3 100
e 4 5
e 4 6
e 4 10
e 4 12
e 4 13
e 4 15
e 4 19
e 4 20
e 4 21
e 4 23
e 4 25
e 4 27
e 4 28
e 4 31
e 4 33
e 4 37
e 4 38
e 4 39
e 4 40
e 4 41
e 4 42
e 4 43
e 4 45
e 4 46
e 4 49
e 4 50
e 4 51
e 4 52
e 4 53
e 4 58
e 4 60
e 4 63
e 4 66
e 4 67
e 4 68
e 4 69
e 4 74
e 4 75
e 4 78
e 4 79
e 4 80
e 4 81
e 4 82
e 4 83
e 4 86
e 4 87
e 4 89
e 4 90
e 4 91
e 4 92
e 4 95
e 4 97
e 4 98
e 4 99
e 4 100
e 5 6
e 5 7
e 5 8
e 5 11
e 5 12
e 5 13
e 5 15
e 5 17
e 5 20
e 5 21
e 5 22
e 5 23
e 5 25
e 5 31
e 5 32
e 5 33
e 5 34
e 5 35
e 5 40
e 5 41
e 5 43
e 5 44
e 5 48
e 5 49
e 5 51
e 5 53
e 5 55
e 5 56
e 5 57
e 5 58
e 5 59
e 5 63
e 5 64
e 5 65
e 5 69
e 5 70
e 5 71
e 5 74
e 5 76
e 5 77
e 5 78
e 5 80
e 5 81
e 5 82
e 5 84
e 5 85
e 5 87
e 5 88
e 5 91
e 5 92
e 5 93
e 5 94
e 5 96
e 5 97
e 5 100
e 6 7
e 6 9
e 6 11
e 6 12
e 6 14
e 6 15
e 6 16
e 6 18
e 6 19
e 6 20
e 6 21
e 6 24
e 6 25
e 6 29
e 6 31
e 6 32
e 6 35
e 6 37
e 6 39
e 6 40
e 6 42
e 6 43
e 6 44
e 6 45
e 6 46
e 6 47
e 6 48
e 6 50
e 6 51
e 6 52
e 6 53
e 6 54
e 6 55
e 6 59
e 6 60
e 6 61
e 6 64
e 6 65
e 6 66
e 6 67
e 6 71
e 6 74
e 6 77
e 6 79
e 6 80
e 6 82
e 6 88
e 6 89
e 6 90
e 6 92
e 6 95
e 6 96
e 6 97
e 6 99
e 7 9
e 7 12
e 7 14
e 7 18
e 7 22
e 7 24
e 7 26
e 7 27
e 7 29
e 7 31
e 7 33
e 7 35
e 7 37
e 7 38
e 7 39
e 7 40
e 7 41
e 7 42
e 7 44
e 7 45
e 7 46
e 7 48
e 7 53
e 7 54
e 7 55
e 7 56
e 7 58
e 7 63
e 7 68
e 7 71
e 7 73
e 7 75
e 7 76
e 7 80
e 7 81
e 7 84
e 7 86
e 7 87
e 7 88
e 7 89
e 7 91
e 7 95
e 7 96
e 7 97
e 7 98
e 7 99
e 7 100
e 8 9
e 8 10
e 8 11
e 8 13
e 8 15
e 8 16
e 8 17
e 8 19
e 8 20
e 8 21
e 8 23
e 8 26
e 8 27
e 8 29
e 8 32
e 8 33
e 8 36
e 8 38
e 8 39
e 8 43
e 8 44
e 8 45
e 8 46
e 8 47
e 8 48
e 8 50
e 8 51
e 8 53
e 8 54
e 8 55
e 8 56
e 8 57
e 8 59
e 8 60
e 8 61
e 8 63
e 8 64
e 8 67
e 8 68
e 8 69
e 8 70
e 8 71
e 8 72
e 8 73
e 8 75
e 8 76
e 8 81
e 8 87
e 8 88
e 8 89
e 8 90
e 8 91
e 8 92
e 8 93
e 8 95
e 8 96
e 8 97
e 9 10
e 9 13
e 9 16
e 9 17
e 9 20
e 9 22
e 9 25
e 9 28
e 9 29
e 9 30
e 9 31
e 9 32
e 9 34
e 9 35
e 9 36
e 9 38
e 9 39
e 9 41
e 9 44
e 9 46
e 9 48
e 9 49
e 9 52
e 9 54
e 9 56
e 9 57
e 9 62
e 9 64
e 9 65
e 9 66
e 9 69
e 9 71
e 9 72
e 9 74
e 9 75
e 9 76
e 9 77
e 9 79
e 9 83
e 9 84
e 9 87
e 9 88
e 9 90
e 9 91
e 9 92
e 9 95
e 9 96
e 9 97
e 9 99
e 10 11
e 10 12
e 10 13
e 10 17
e 10 18
e 10 19
e 10 20
e 10 24
e 10 26
e 10 29
e 10 30
e 10 35
e 10 36
e 10 37
e 10 39
e 10 40
e 10 41
e 10 42
e 10 44
e 10 45
e 10 46
e 10 51
e 10 52
e 10 54
e 10 56
e 10 57
e 10 58
e 10 59
e 10 62
e 10 63
e 10 65
e 10 68
e 10 71
e 10 72
e 10 73
e 10 75
e 10 77
e 10 81
e 10 84
e 10 86
e 10 88
e 10 89
e 10 90
e 10 92
e 10 94
e 10 95
e 10 97
e 10 98
e 10 100
e 11 14
e 11 16
e 11 17
e 11 18
e 11 19
e 11 20
e 11 21
e 11 22
e 11 23
e 11 26
e 11 27
e 11 28
e 11 30
e 11 31
e 11 32
e 11 33
e 11 39
e 11 40
e 11 44
e 11 45
e 11 46
e 11 47
e 11 48
e 11 49
e 11 50
e 11 51
e 11 52
e 11 53
e 11 61
e 11 62
e 11 63
e 11 65
e 11 66
e 11 67
e 11 69
e 11 70
e 11 71
e 11 72
e 11 73
e 11 74
e 11 76
e 11 77
e 11 78
e 11 81
e 11 84
e 11 85
e 11 86
e 11 87
e 11 88
e 11 89
e 11 90
e 11 91
e 11 92
e 11 93
e 11 94
e 11 97
e 11 99
e 11 100
e 12 14
e 12 15
e 12 16
e 12 17
e 12 18
e 12 19
e 12 21
e 12 26
e 12 29
e 12 31
e 12 32
e 12 33
e 12 34
e 12 35
e 12 37
e 12 38
e 12 41
e 12 43
e 12 44
e 12 45
e 12 47
e 12 48
e 12 51
e 12 52
e 12 53
e 12 55
e 12 56
e 12 58
e 12 59
e 12 60
e 12 61
e 12 64
e 12 65
e 12 66
e 12 68
e 12 69
e 12 70
e 12 72
e 12 74
e 12 77
e 12 78
e 12 79
e 12 81
e 12 85
e 12 86
e 12 87
e 12 88
e 12 89
e 12 92
e 12 93
e 12 98
e 13 18
e 13 19
e 13 20
e 13 24
e 13 26
e 13 27
e 13 28
e 13 30
e 13 31
e 13 35
e 13 37
e 13 38
e 13 39
e 13 41
e 13 42
e 13 43
e 13 46
e 13 51
e 13 53
e 13 54
e 13 57
e 13 58
e 13 60
e 13 61
e 13 62
e 13 63
e 13 65
e 13 67
e 13 70
e 13 72
e 13 74
e 13 76
e 13 78
e 13 80
e 13 81
e 13 82
e 13 83
e 13 85
e 13 86
e 13 87
e 13 88
e 13 89
e 13 90
e 13 93
e 13 95
e 13 98
e 13 99
e 14 15
e 14 18
e 14 19
e 14 20
e 14 24
e 14 25
e 14 27
e 14 29
e 14 32
e 14 37
e 14 38
e 14 41
e 14 42
e 14 43
e 14 45
e 14 46
e 14 47
e 14 49
e 14 51
e 14 52
e 14 53
e 14 54
e 14 56
e 14 57
e 14 59
e 14 62
e 14 63
e 14 64
e 14 66
e 14 67
e 14 68
e 14 69
e 14 71
e 14 73
e 14 75
e 14 76
e 14 77
e 14 78
e 14 79
e 14 80
e 14 82
e 14 85
e 14 90
e 14 91
e 14 92
e 14 93
e 14 94
e 14 96
e 14 97
e 14 99
e 14 100
e 15 16
e 15 17
e 15 19
e 15 20
e 15 21
e 15 23
e 15 26
e 15 27
e 15 28
e 15 29
e 15 30
e 15 32
e 15 33
e 15 34
e 15 35
e 15 36
e 15 37
e 15 39
e 15 44
e 15 47
e 15 48
e 15 50
e 15 51
e 15 52
e 15 54
e 15 55
e 15 56
e 15 60
e 15 62
e 15 63
e 15 64
e 15 65
e 15 66
e 15 67
e 15 69
e 15 71
e 15 72
e 15 73
e 15 74
e 15 76
e 15 79
e 15 80
e 15 82
e 15 83
e 15 84
e 15 86
e 15 87
e 15 88
e 15 91
e 15 92
e 15 94
e 15 96
e 15 97
e 15 98
e 15 99
e 15 100
e 16 19
e 16 21
e 16 22
e 16 23
e 16 25
e 16 26
e 16 27
e 16 32
e 16 33
e 16 37
e 16 38
e 16 40
e 16 41
e 16 44
e 16 45
e 16 46
e 16 49
e 16 50
e 16 52
e 16 54
e 16 55
e 16 58
e 16 59
e 16 60
e 16 62
e 16 66
e 16 69
e 16 71
e 16 73
e 16 74
e 16 75
e 16 77
e 16 79
e 16 81
e 16 82
e 16 83
e 16 84
e 16 85
e 16 86
e 16 87
e 16 88
e 16 89
e 16 91
e 16 92
e 16 93
e 16 97
e 16 98
e 16 99
e 17 21
e 17 22
e 17 23
e 17 24
e 17 25
e 17 26
e 17 27
e 17 29
e 17 31
e 17 32
e 17 33
e 17 36
e 17 37
e 17 40
e 17 41
e 17 42
e 17 44
e 17 45
e 17 46
e 17 47
e 17 48
e 17 49
e 17 51
e 17 52
e 17 56
e 17 57
e 17 60
e 17 61
e 17 62
e 17 64
e 17 66
e 17 68
e 17 69
e 17 70
e 17 71
e 17 72
e 17 73
e 17 75
e 17 77
e 17 78
e 17 79
e 17 81
e 17 82
e 17 84
e 17 86
e 17 88
e 17 91
e 17 92
e 17 95
e 17 97
e 17 98
e 17 99
e 18 20
e 18 23
e 18 24
e 18 26
e 18 28
e 18 30
e 18 31
e 18 33
e 18 35
e 18 40
e 18 41
e 18 42
e 18 43
e 18 45
e 18 47
e 18 48
e 18 51
e 18 53
e 18 54
e 18 55
e 18 58
e 18 61
e 18 62
e 18 63
e 18 64
e 18 65
e 18 66
e 18 67
e 18 69
e 18 70
e 18 74
e 18 76
e 18 77
e 18 78
e 18 79
e 18 80
e 18 82
e 18 83
e 18 85
e 18 87
e 18 88
e 18 89
e 18 90
e 18 91
e 18 93
e 18 94
e 18 95
e 18 97
e 18 99
e 19 21
e 19 22
e 19 23
e 19 24
e 19 25
e 19 26
e 19 27
e 19 31
e 19 32
e 19 33
e 19 34
e 19 35
e 19 38
e 19 40
e 19 42
e 19 43
e 19 47
e 19 48
e 19 50
e 19 51
e 19 55
e 19 56
e 19 57
e 19 59
e 19 60
e 19 63
e 19 64
e 19 69
e 19 72
e 19 73
e 19 74
e 19 75
e 19 79
e 19 80
e 19 81
e 19 83
e 19 85
e 19 86
e 19 88
e 19 89
e 19 90
e 19 91
e 19 93
e 19 95
e 19 97
e 20 23
e 20 24
e 20 25
e 20 26
e 20 27
e 20 28
e 20 29
e 20 30
e 20 31
e 20 35
e 20 37
e 20 40
e 20 43
e 20 44
e 20 45
e 20 46
e 20 47
e 20 50
e 20 52
e 20 53
e 20 55
e 20 56
e 20 58
e 20 60
e 20 61
e 20 63
e 20 64
e 20 65
e 20 66
e 20 67
e 20 68
e 20 69
e 20 71
e 20 73
e 20 75
e 20 76
e 20 77
e 20 78
e 20 79
e 20 83
e 20 84
e 20 85
e 20 87
e 20 90
e 20 91
e 20 93
e 20 97
e 21 22
e 21 25
e 21 26
e 21 28
e 21 29
e 21 32
e 21 34
e 21 35
e 21 39
e 21 40
e 21 41
e 21 43
e 21 44
e 21 45
e 21 53
e 21 55
e 21 56
e 21 57
e 21 58
e 21 59
e 21 60
e 21 62
e 21 63
e 21 64
e 21 65
e 21 66
e 21 68
e 21 70
e 21 71
e 21 72
e 21 73
e 21 74
e 21 75
e 21 77
e 21 81
e 21 82
e 21 85
e 21 86
e 21 87
e 21 89
e 21 90
e 21 91
e 21 93
e 21 94
e 21 96
e 21 98
e 21 99
e 22 25
e 22 26
e 22 29
e 22 30
e 22 32
e 22 33
e 22 34
e 22 35
e 22 36
e 22 37
e 22 39
e 22 40
e 22 42
e 22 43
e 22 44
e 22 47
e 22 48
e 22 49
e 22 50
e 22 51
e 22 53
e 22 56
e 22 57
e 22 58
e 22 62
e 22 64
e 22 65
e 22 67
e 22 69
e 22 72
e 22 73
e 22 74
e 22 76
e 22 77
e 22 79
e 22 80
e 22 82
e 22 83
e 22 85
e 22 86
e 22 87
e 22 88
e 22 89
e 22 94
e 22 95
e 22 96
e 22 97
e 22 98
e 22 99
e 22 100
e 23 24
e 23 26
e 23 27
e 23 29
e 23 30
e 23 31
e 23 33
e 23 34
e 23 37
e 23 38
e 23 41
e 23 42
e 23 43
e 23 45
e 23 46
e 23 49
e 23 50
e 23 51
e 23 52
e 23 53
e 23 54
e 23 55
e 23 56
e 23 57
e 23 58
e 23 60
e 23 65
e 23 67
e 23 71
e 23 74
e 23 75
e 23 76
e 23 79
e 23 80
e 23 81
e 23 82
e 23 83
e 23 86
e 23 87
e 23 89
e 23 90
e 23 94
e 23 98
e 23 99
e 23 100
e 24 25
e 24 26
e 24 28
e 24 31
e 24 34
e 24 39
e 24 40
e 24 41
e 24 42
e 24 43
e 24 44
e 24 46
e 24 47
e 24 48
e 24 49
e 24 51
e 24 52
e 24 53
e 24 54
e 24 55
e 24 56
e 24 57
e 24 58
e 24 60
e 24 62
e 24 63
e 24 64
e 24 67
e 24 68
e 24 69
e 24 71
e 24 72
e 24 73
e 24 76
e 24 78
e 24 80
e 24 82
e 24 84
e 24 86
e 24 87
e 24 89
e 24 91
e 24 93
e 24 94
e 24 95
e 24 97
e 24 100
e 25 26
e 25 27
e 25 29
e 25 30
e 25 31
e 25 32
e 25 34
e 25 38
e 25 39
e 25 40
e 25 41
e 25 43
e 25 44
e 25 45
e 25 46
e 25 47
e 25 48
e 25 49
e 25 50
e 25 52
e 25 53
e 25 54
e 25 56
e 25 57
e 25 59
e 25 61
e 25 62
e 25 63
e 25 64
e 25 65
e 25 67
e 25 68
e 25 70
e 25 71
e 25 73
e 25 74
e 25 78
e 25 79
e 25 80
e 25 81
e 25 82
e 25 83
e 25 84
e 25 86
e 25 87
e 25 88
e 25 89
e 25 90
e 25 91
e 25 92
e 25 93
e 25 94
e 25 95
e 25 96
e 25 97
e 25 98
e 25 100
e 26 27
e 26 28
e 26 29
e 26 31
e 26 32
e 26 34
e 26 35
e 26 39
e 26 40
e 26 42
e 26 43
e 26 44
e 26 45
e 26 46
e 26 48
e 26 49
e 26 50
e 26 53
e 26 54
e 26 55
e 26 61
e 26 63
e 26 68
e 26 69
e 26 71
e 26 72
e 26 73
e 26 74
e 26 76
e 26 77
e 26 78
e 26 80
e 26 82
e 26 83
e 26 84
e 26 86
e 26 87
e 26 88
e 26 90
e 26 91
e 26 93
e 26 95
e 26 98
e 26 99
e 26 100
e 27 29
e 27 30
e 27 33
e 27 34
e 27 38
e 27 39
e 27 40
e 27 42
e 27 44
e 27 46
e 27 47
e 27 48
e 27 49
e 27 50
e 27 53
e 27 55
e 27 57
e 27 60
e 27 62
e 27 63
e 27 65
e 27 66
e 27 67
e 27 68
e 27 69
e 27 71
e 27 75
e 27 76
e 27 77
e 27 78
e 27 80
e 27 81
e 27 82
e 27 84
e 27 85
e 27 86
e 27 92
e 27 93
e 27 94
e 27 95
e 27 97
e 27 99
e 27 100
e 28 29
e 28 30
e 28 31
e 28 33
e 28 34
e 28 35
e 28 38
e 28 39
e 28 40
e 28 41
e 28 42
e 28 43
e 28 46
e 28 48
e 28 50
e 28 51
e 28 53
e 28 54
e 28 56
e 28 59
e 28 60
e 28 63
e 28 64
e 28 65
e 28 67
e 28 70
e 28 72
e 28 73
e 28 77
e 28 78
e 28 81
e 28 83
e 28 84
e 28 85
e 28 86
e 28 89
e 28 90
e 28 94
e 28 97
e 28 98
e 28 99
e 28 100
e 29 31
e 29 32
e 29 33
e 29 34
e 29 37
e 29 38
e 29 40
e 29 41
e 29 43
e 29 44
e 29 46
e 29 49
e 29 50
e 29 51
e 29 53
e 29 55
e 29 56
e 29 58
e 29 60
e 29 61
e 29 62
e 29 63
e 29 64
e 29 65
e 29 66
e 29 67
e 29 73
e 29 74
e 29 75
e 29 76
e 29 77
e 29 78
e 29 79
e 29 83
e 29 85
e 29 86
e 29 87
e 29 89
e 29 90
e 29 91
e 29 99
e 29 100
e 30 31
e 30 34
e 30 35
e 30 39
e 30 42
e 30 43
e 30 45
e 30 47
e 30 51
e 30 52
e 30 53
e 30 56
e 30 57
e 30 60
e 30 61
e 30 64
e 30 66
e 30 67
e 30 69
e 30 70
e 30 72
e 30 73
e 30 75
e 30 76
e 30 77
e 30 78
e 30 80
e 30 81
e 30 85
e 30 86
e 30 89
e 30 90
e 30 91
e 30 92
e 30 95
e 30 96
e 30 98
e 30 100
e 31 32
e 31 35
e 31 36
e 31 38
e 31 39
e 31 40
e 31 41
e 31 42
e 31 43
e 31 44
e 31 47
e 31 48
e 31 51
e 31 53
e 31 54
e 31 55
e 31 56
e 31 57
e 31 58
e 31 59
e 31 60
e 31 61
e 31 62
e 31 67
e 31 70
e 31 71
e 31 72
e 31 74
e 31 75
e 31 76
e 31 77
e 31 78
e 31 79
e 31 80
e 31 82
e 31 84
e 31 85
e 31 86
e 31 89
e 31 90
e 31 94
e 31 95
e 31 97
e 31 99
e 32 33
e 32 34
e 32 35
e 32 36
e 32 38
e 32 40
e 32 41
e 32 43
e 32 44
e 32 45
e 32 46
e 32 50
e 32 51
e 32 53
e 32 54
e 32 56
e 32 58
e 32 59
e 32 60
e 32 61
e 32 63
e 32 65
e 32 66
e 32 70
e 32 72
e 32 73
e 32 76
e 32 79
e 32 81
e 32 82
e 32 83
e 32 85
e 32 86
e 32 87
e 32 90
e 32 91
e 32 95
e 32 97
e 32 99
e 32 100
e 33 34
e 33 35
e 33 36
e 33 39
e 33 41
e 33 42
e 33 43
e 33 44
e 33 48
e 33 49
e 33 50
e 33 51
e 33 52
e 33 53
e 33 54
e 33 56
e 33 57
e 33 59
e 33 61
e 33 63
e 33 64
e 33 65
e 33 66
e 33 67
e 33 69
e 33 72
e 33 73
e 33 74
e 33 76
e 33 77
e 33 78
e 33 80
e 33 82
e 33 83
e 33 84
e 33 85
e 33 88
e 33 91
e 33 92
e 33 93
e 33 94
e 33 95
e 33 96
e 33 97
e 33 98
e 33 99
e 33 100
e 34 35
e 34 36
e 34 39
e 34 40
e 34 42
e 34 45
e 34 46
e 34 47
e 34 50
e 34 52
e 34 54
e 34 55
e 34 56
e 34 58
e 34 59
e 34 60
e 34 61
e 34 62
e 34 63
e 34 64
e 34 66
e 34 67
e 34 69
e 34 71
e 34 72
e 34 73
e 34 74
e 34 75
e 34 76
e 34 77
e 34 78
e 34 79
e 34 80
e 34 81
e 34 82
e 34 83
e 34 85
e 34 86
e 34 88
e 34 90
e 34 91
e 34 92
e 34 95
e 34 96
e 34 97
e 34 98
e 34 99
e 34 100
e 35 38
e 35 39
e 35 41
e 35 44
e 35 46
e 35 48
e 35 50
e 35 51
e 35 54
e 35 61
e 35 63
e 35 64
e 35 65
e 35 66
e 35 74
e 35 75
e 35 77
e 35 78
e 35 79
e 35 82
e 35 83
e 35 84
e 35 85
e 35 87
e 35 90
e 35 92
e 35 93
e 35 95
e 35 96
e 35 97
e 35 98
e 35 99
e 35 100
e 36 37
e 36 39
e 36 41
e 36 43
e 36 44
e 36 48
e 36 49
e 36 50
e 36 51
e 36 53
e 36 54
e 36 55
e 36 56
e 36 57
e 36 59
e 36 60
e 36 61
e 36 63
e 36 65
e 36 66
e 36 68
e 36 69
e 36 71
e 36 72
e 36 73
e 36 74
e 36 77
e 36 82
e 36 83
e 36 86
e 36 88
e 36 89
e 36 90
e 36 91
e 36 93
e 36 94
e 36 95
e 36 97
e 36 98
e 36 100
e 37 41
e 37 42
e 37 43
e 37 46
e 37 48
e 37 50
e 37 53
e 37 54
e 37 55
e 37 56
e 37 57
e 37 59
e 37 60
e 37 61
e 37 62
e 37 63
e 37 64
e 37 65
e 37 71
e 37 73
e 37 76
e 37 78
e 37 80
e 37 81
e 37 84
e 37 85
e 37 86
e 37 87
e 37 88
e 37 89
e 37 92
e 37 93
e 37 94
e 37 95
e 37 98
e 37 99
e 37 100
e 38 39
e 38 40
e 38 41
e 38 42
e 38 44
e 38 45
e 38 46
e 38 49
e 38 50
e 38 51
e 38 54
e 38 55
e 38 57
e 38 58
e 38 59
e 38 60
e 38 61
e 38 62
e 38 65
e 38 66
e 38 68
e 38 72
e 38 74
e 38 76
e 38 79
e 38 80
e 38 81
e 38 82
e 38 83
e 38 85
e 38 87
e 38 90
e 38 93
e 38 94
e 38 95
e 38 96
e 38 99
e 38 100
e 39 40
e 39 43
e 39 44
e 39 46
e 39 47
e 39 48
e 39 49
e 39 53
e 39 55
e 39 57
e 39 59
e 39 60
e 39 61
e 39 62
e 39 63
e 39 64
e 39 66
e 39 67
e 39 68
e 39 69
e 39 70
e 39 71
e 39 72
e 39 73
e 39 74
e 39 76
e 39 77
e 39 78
e 39 79
e 39 80
e 39 83
e 39 85
e 39 86
e 39 87
e 39 88
e 39 89
e 39 90
e 39 91
e 39 92
e 39 93
e 39 95
e 39 98
e 39 99
e 39 100
e 40 44
e 40 47
e 40 48
e 40 49
e 40 50
e 40 52
e 40 54
e 40 55
e 40 56
e 40 57
e 40 59
e 40 61
e 40 62
e 40 63
e 40 64
e 40 65
e 40 66
e 40 67
e 40 68
e 40 69
e 40 70
e 40 71
e 40 72
e 40 75
e 40 76
e 40 77
e 40 79
e 40 80
e 40 81
e 40 82
e 40 84
e 40 86
e 40 87
e 40 89
e 40 90
e 40 91
e 40 93
e 40 94
e 40 95
e 40 96
e 40 97
e 40 99
e 40 100
e 41 42
e 41 43
e 41 44
e 41 46
e 41 47
e 41 49
e 41 50
e 41 52
e 41 54
e 41 56
e 41 58
e 41 59
e 41 60
e 41 61
e 41 62
e 41 63
e 41 64
e 41 67
e 41 68
e 41 70
e 41 72
e 41 74
e 41 77
e 41 78
e 41 79
e 41 82
e 41 83
e 41 84
e 41 86
e 41 87
e 41 88
e 41 89
e 41 90
e 41 91
e 41 92
e 41 93
e 41 96
e 41 98
e 42 43
e 42 44
e 42 46
e 42 47
e 42 48
e 42 50
e 42 52
e 42 53
e 42 56
e 42 58
e 42 59
e 42 60
e 42 63
e 42 64
e 42 66
e 42 68
e 42 70
e 42 72
e 42 73
e 42 75
e 42 76
e 42 77
e 42 78
e 42 79
e 42 81
e 42 85
e 42 86
e 42 89
e 42 91
e 42 93
e 42 94
e 42 95
e 42 96
e 42 97
e 42 98
e 43 44
e 43 49
e 43 51
e 43 53
e 43 55
e 43 56
e 43 57
e 43 59
e 43 61
e 43 65
e 43 68
e 43 69
e 43 71
e 43 72
e 43 73
e 43 74
e 43 76
e 43 77
e 43 79
e 43 80
e 43 81
e 43 83
e 43 85
e 43 87
e 43 89
e 43 90
e 43 91
e 43 93
e 43 95
e 43 96
e 43 97
e 43 99
e 44 45
e 44 46
e 44 48
e 44 51
e 44 52
e 44 53
e 44 54
e 44 57
e 44 61
e 44 62
e 44 65
e 44 66
e 44 67
e 44 68
e 44 69
e 44 70
e 44 71
e 44 73
e 44 76
e 44 77
e 44 78
e 44 79
e 44 80
e 44 81
e 44 82
e 44 83
e 44 84
e 44 85
e 44 86
e 44 87
e 44 88
e 44 90
e 44 91
e 44 92
e 44 94
e 44 95
e 44 96
e 44 97
e 44 100
e 45 46
e 45 47
e 45 48
e 45 49
e 45 54
e 45 55
e 45 58
e 45 59
e 45 61
e 45 62
e 45 63
e 45 64
e 45 67
e 45 68
e 45 69
e 45 71
e 45 72
e 45 73
e 45 75
e 45 76
e 45 77
e 45 82
e 45 83
e 45 86
e 45 87
e 45 91
e 45 92
e 45 93
e 45 94
e 45 96
e 45 98
e 46 47
e 46 49
e 46 50
e 46 51
e 46 53
e 46 54
e 46 58
e 46 59
e 46 60
e 46 61
e 46 63
e 46 64
e 46 65
e 46 66
e 46 67
e 46 70
e 46 71
e 46 74
e 46 80
e 46 81
e 46 83
e 46 84
e 46 87
e 46 88
e 46 93
e 46 94
e 46 96
e 46 100
e 47 49
e 47 51
e 47 55
e 47 56
e 47 57
e 47 60
e 47 62
e 47 63
e 47 64
e 47 66
e 47 67
e 47 68
e 47 69
e 47 70
e 47 72
e 47 74
e 47 76
e 47 77
e 47 78
e 47 79
e 47 80
e 47 83
e 47 86
e 47 87
e 47 89
e 47 92
e 47 93
e 47 96
e 47 98
e 47 99
e 47 100
e 48 49
e 48 51
e 48 52
e 48 53
e 48 54
e 48 56
e 48 60
e 48 61
e 48 62
e 48 64
e 48 65
e 48 66
e 48 68
e 48 69
e 48 70
e 48 71
e 48 72
e 48 73
e 48 74
e 48 75
e 48 76
e 48 77
e 48 79
e 48 80
e 48 82
e 48 83
e 48 85
e 48 86
e 48 87
e 48 88
e 48 89
e 48 93
e 48 94
e 48 95
e 48 96
e 48 97
e 48 98
e 48 99
e 48 100
e 49 50
e 49 51
e 49 52
e 49 53
e 49 56
e 49 57
e 49 58
e 49 59
e 49 62
e 49 63
e 49 66
e 49 68
e 49 69
e 49 72
e 49 73
e 49 74
e 49 75
e 49 76
e 49 79
e 49 81
e 49 84
e 49 85
e 49 86
e 49 87
e 49 88
e 49 89
e 49 90
e 49 91
e 49 92
e 49 93
e 49 95
e 49 96
e 49 97
e 49 99
e 49 100
e 50 51
e 50 52
e 50 53
e 50 54
e 50 55
e 50 56
e 50 57
e 50 58
e 50 60
e 50 61
e 50 62
e 50 63
e 50 64
e 50 66
e 50 67
e 50 71
e 50 72
e 50 73
e 50 76
e 50 78
e 50 79
e 50 80
e 50 82
e 50 88
e 50 89
e 50 90
e 50 92
e 50 93
e 50 94
e 50 95
e 50 97
e 50 99
e 50 100
e 51 53
e 51 54
e 51 56
e 51 57
e 51 58
e 51 59
e 51 61
e 51 63
e 51 64
e 51 67
e 51 68
e 51 69
e 51 72
e 51 73
e 51 74
e 51 76
e 51 77
e 51 78
e 51 79
e 51 81
e 51 83
e 51 86
e 51 87
e 51 91
e 51 93
e 51 94
e 51 95
e 51 96
e 51 97
e 51 98
e 51 100
e 52 53
e 52 55
e 52 58
e 52 59
e 52 61
e 52 62
e 52 67
e 52 70
e 52 72
e 52 75
e 52 76
e 52 78
e 52 79
e 52 81
e 52 82
e 52 83
e 52 84
e 52 87
e 52 89
e 52 90
e 52 91
e 52 93
e 52 96
e 52 97
e 52 98
e 52 99
e 53 54
e 53 55
e 53 57
e 53 58
e 53 59
e 53 60
e 53 62
e 53 63
e 53 64
e 53 65
e 53 68
e 53 70
e 53 72
e 53 74
e 53 77
e 53 78
e 53 80
e 53 83
e 53 85
e 53 87
e 53 88
e 53 90
e 53 92
e 53 93
e 53 96
e 53 98
e 54 55
e 54 58
e 54 59
e 54 60
e 54 62
e 54 63
e 54 64
e 54 65
e 54 67
e 54 69
e 54 71
e 54 72
e 54 73
e 54 74
e 54 76
e 54 77
e 54 80
e 54 83
e 54 85
e 54 86
e 54 88
e 54 91
e 54 94
e 54 96
e 54 97
e 54 100
e 55 56
e 55 57
e 55 58
e 55 60
e 55 62
e 55 63
e 55 64
e 55 68
e 55 69
e 55 70
e 55 71
e 55 72
e 55 75
e 55 76
e 55 79
e 55 81
e 55 82
e 55 83
e 55 84
e 55 85
e 55 86
e 55 87
e 55 88
e 55 90
e 55 91
e 55 93
e 55 94
e 55 95
e 55 97
e 55 98
e 55 99
e 55 100
e 56 57
e 56 58
e 56 59
e 56 60
e 56 64
e 56 66
e 56 69
e 56 70
e 56 73
e 56 74
e 56 75
e 56 76
e 56 78
e 56 80
e 56 81
e 56 82
e 56 84
e 56 87
e 56 88
e 56 91
e 56 93
e 56 96
e 56 97
e 56 98
e 56 99
e 56 100
e 57 59
e 57 62
e 57 63
e 57 65
e 57 66
e 57 67
e 57 68
e 57 71
e 57 72
e 57 73
e 57 75
e 57 76
e 57 77
e 57 78
e 57 80
e 57 81
e 57 82
e 57 85
e 57 86
e 57 88
e 57 90
e 57 91
e 57 93
e 57 95
e 57 97
e 57 98
e 57 99
e 57 100
e 58 59
e 58 60
e 58 61
e 58 62
e 58 64
e 58 66
e 58 68
e 58 71
e 58 72
e 58 73
e 58 74
e 58 84
e 58 86
e 58 87
e 58 90
e 58 91
e 58 93
e 58 94
e 58 96
e 58 98
e 58 100
e 59 63
e 59 64
e 59 65
e 59 67
e 59 68
e 59 71
e 59 73
e 59 74
e 59 76
e 59 77
e 59 78
e 59 81
e 59 82
e 59 83
e 59 86
e 59 88
e 59 89
e 59 90
e 59 91
e 59 92
e 59 93
e 59 96
e 59 97
e 59 98
e 59 100
e 60 61
e 60 65
e 60 66
e 60 68
e 60 69
e 60 70
e 60 71
e 60 72
e 60 73
e 60 74
e 60 76
e 60 78
e 60 79
e 60 80
e 60 81
e 60 82
e 60 83
e 60 84
e 60 86
e 60 87
e 60 89
e 60 91
e 60 92
e 60 93
e 60 94
e 60 95
e 60 96
e 60 97
e 60 98
e 61 64
e 61 65
e 61 67
e 61 68
e 61 70
e 61 71
e 61 72
e 61 75
e 61 76
e 61 81
e 61 82
e 61 84
e 61 85
e 61 86
e 61 88
e 61 91
e 61 92
e 61 93
e 61 97
e 61 98
e 61 100
e 62 63
e 62 64
e 62 69
e 62 70
e 62 71
e 62 72
e 62 74
e 62 75
e 62 76
e 62 77
e 62 79
e 62 81
e 62 82
e 62 87
e 62 88
e 62 89
e 62 93
e 62 95
e 62 96
e 62 99
e 63 64
e 63 65
e 63 66
e 63 68
e 63 69
e 63 71
e 63 74
e 63 75
e 63 76
e 63 79
e 63 80
e 63 82
e 63 83
e 63 85
e 63 86
e 63 87
e 63 88
e 63 90
e 63 93
e 63 94
e 63 96
e 63 97
e 63 100
e 64 74
e 64 75
e 64 76
e 64 78
e 64 79
e 64 80
e 64 81
e 64 82
e 64 88
e 64 89
e 64 90
e 64 91
e 64 93
e 64 94
e 64 97
e 64 98
e 64 99
e 65 67
e 65 70
e 65 72
e 65 73
e 65 76
e 65 77
e 65 78
e 65 79
e 65 80
e 65 81
e 65 82
e 65 84
e 65 85
e 65 87
e 65 88
e 65 89
e 65 91
e 65 96
e 65 98
e 65 99
e 65 100
e 66 67
e 66 68
e 66 69
e 66 72
e 66 74
e 66 75
e 66 76
e 66 77
e 66 78
e 66 80
e 66 82
e 66 83
e 66 86
e 66 87
e 66 88
e 66 93
e 66 94
e 66 95
e 66 96
e 66 97
e 66 100
e 67 68
e 67 69
e 67 71
e 67 72
e 67 75
e 67 76
e 67 77
e 67 81
e 67 83
e 67 84
e 67 85
e 67 86
e 67 88
e 67 89
e 67 92
e 67 95
e 67 97
e 67 99
e 68 69
e 68 71
e 68 72
e 68 73
e 68 75
e 68 77
e 68 79
e 68 80
e 68 84
e 68 85
e 68 87
e 68 88
e 68 89
e 68 91
e 68 92
e 68 93
e 68 95
e 68 97
e 68 99
e 68 100
e 69 70
e 69 71
e 69 73
e 69 74
e 69 76
e 69 77
e 69 78
e 69 79
e 69 85
e 69 86
e 69 90
e 69 93
e 69 97
e 69 99
e 70 72
e 70 73
e 70 74
e 70 79
e 70 80
e 70 81
e 70 82
e 70 83
e 70 84
e 70 86
e 70 87
e 70 88
e 70 89
e 70 90
e 70 91
e 70 92
e 70 94
e 70 95
e 70 96
e 70 97
e 70 98
e 71 72
e 71 73
e 71 75
e 71 77
e 71 78
e 71 79
e 71 80
e 71 81
e 71 84
e 71 85
e 71 86
e 71 88
e 71 90
e 71 91
e 71 92
e 71 96
e 71 97
e 71 98
e 72 74
e 72 76
e 72 77
e 72 78
e 72 80
e 72 81
e 72 82
e 72 83
e 72 86
e 72 89
e 72 90
e 72 91
e 72 94
e 72 96
e 72 97
e 72 98
e 72 99
e 72 100
e 73 74
e 73 75
e 73 76
e 73 77
e 73 78
e 73 81
e 73 83
e 73 84
e 73 86
e 73 92
e 73 97
e 73 98
e 73 99
e 74 75
e 74 76
e 74 77
e 74 82
e 74 83
e 74 85
e 74 86
e 74 87
e 74 90
e 74 92
e 74 93
e 74 94
e 74 95
e 74 97
e 74 99
e 75 76
e 75 79
e 75 80
e 75 82
e 75 86
e 75 91
e 75 92
e 75 94
e 75 97
e 75 99
e 75 100
e 76 78
e 76 80
e 76 81
e 76 83
e 76 86
e 76 91
e 76 93
e 76 95
e 76 96
e 76 98
e 76 99
e 76 100
e 77 78
e 77 80
e 77 82
e 77 83
e 77 84
e 77 86
e 77 88
e 77 89
e 77 90
e 77 91
e 77 93
e 77 97
e 77 98
e 77 99
e 78 79
e 78 80
e 78 84
e 78 85
e 78 87
e 78 89
e 78 90
e 78 91
e 78 93
e 78 98
e 78 100
e 79 83
e 79 84
e 79 85
e 79 87
e 79 88
e 79 94
e 79 98
e 79 99
e 79 100
e 80 82
e 80 83
e 80 85
e 80 86
e 80 87
e 80 89
e 80 91
e 80 92
e 80 95
e 80 96
e 80 97
e 80 100
e 81 83
e 81 84
e 81 85
e 81 86
e 81 89
e 81 90
e 81 92
e 81 94
e 81 95
e 81 96
e 81 97
e 81 100
e 82 83
e 82 86
e 82 87
e 82 88
e 82 89
e 82 93
e 82 95
e 82 96
e 82 97
e 82 98
e 82 100
e 83 85
e 83 86
e 83 87
e 83 92
e 83 94
e 83 97
e 83 98
e 83 99
e 84 85
e 84 90
e 84 93
e 84 95
e 84 96
e 84 97
e 84 99
e 85 87
e 85 88
e 85 91
e 85 94
e 85 95
e 85 96
e 85 97
e 85 99
e 86 87
e 86 88
e 86 89
e 86 91
e 86 93
e 86 94
e 86 96
e 86 98
e 86 100
e 87 88
e 87 89
e 87 91
e 87 92
e 87 95
e 88 89
e 88 90
e 88 91
e 88 92
e 88 93
e 88 94
e 88 95
e 88 96
e 88 97
e 89 90
e 89 91
e 89 92
e 89 94
e 89 95
e 89 96
e 89 97
e 89 99
e 89 100
e 90 91
e 90 94
e 90 96
e 90 99
e 91 92
e 91 93
e 91 95
e 91 96
e 91 97
e 91 99
e 91 100
e 92 93
e 92 97
e 92 98
e 92 99
e 92 100
e 93 94
e 93 96
e 94 95
e 94 96
e 94 97
e 94 99
e 95 96
e 95 97
e 95 98
e 95 100
e 96 97
e 96 98
e 96 99
e 96 100
e 97 98
e 97 99
e 97 100
e 98 99
e 98 100
e 99 100